NAME: instances/15_1.tsp
TYPE: TSP
COMMENT: 15-Staedte in Burma (Zaw Win)
DIMENSION: 15
EDGE_WEIGHT_TYPE: GEO
EDGE_WEIGHT_FORMAT: FUNCTION
DISPLAY_DATA_TYPE: COORD_DISPLAY
NODE_COORD_SECTION
1 7.64 -21.5
2 13.13 2.19
3 12.35 -23.4
4 -16.87 22.93
5 6.53 2.63
6 -10.28 -16.34
7 -20.57 13.13
8 12.83 -22.03
9 -9.94 -16.32
10 15.62 -11.05
11 -21.8 27.65
12 -2.67 17.03
13 15.31 -17.99
14 14.95 0.08
15 0.12 5.54
EOF
